aux_benchmarks/lp2sat/smokers_3_2_prob.lp.lp.cnf
p cnf 16 26
5 14 0
-5 -14 0
6 -5 0
-6 5 0
7 15 0
-7 -15 0
8 -7 0
-8 7 0
9 16 0
-9 -16 0
10 -9 0
-10 9 0
11 0
12 0
13 0
14 5 0
-14 -5 0
15 7 0
-15 -7 0
16 9 0
-16 -9 0
-1 0
-1 0
-2 0
-3 0
-4 0
c p auxilliary 1 2 3 4 14 15 16 0
