aux_benchmarks/smokers/smokers_3_2_prob.lp.cnf
p cnf 15 21
10 0
-1 10 0
1 -10 0
11 0
-2 11 0
2 -11 0
12 0
-3 12 0
3 -12 0
13 -5 0
-13 5 0
-4 13 0
4 -13 0
14 -6 0
-14 6 0
-7 14 0
7 -14 0
15 -8 0
-15 8 0
-9 15 0
9 -15 0
c p weight 1 1.0;1.0;1.0 0
c p weight -1 1.0;1.0;1.0 0
c p weight 2 1.0;1.0;1.0 0
c p weight -2 1.0;1.0;1.0 0
c p weight 3 1.0;1.0;1.0 0
c p weight -3 1.0;1.0;1.0 0
c p weight 4 1.0;1.0;1.0 0
c p weight -4 0.0;1.0;1.0 0
c p weight 5 0.5;0.5;0.5 0
c p weight -5 0.5;0.5;0.5 0
c p weight 6 0.5;0.5;0.5 0
c p weight -6 0.5;0.5;0.5 0
c p weight 7 1.0;1.0;1.0 0
c p weight -7 1.0;0.0;1.0 0
c p weight 8 0.5;0.5;0.5 0
c p weight -8 0.5;0.5;0.5 0
c p weight 9 1.0;1.0;1.0 0
c p weight -9 1.0;1.0;0.0 0
c p weight 10 1.0;1.0;1.0 0
c p weight -10 1.0;1.0;1.0 0
c p weight 11 1.0;1.0;1.0 0
c p weight -11 1.0;1.0;1.0 0
c p weight 12 1.0;1.0;1.0 0
c p weight -12 1.0;1.0;1.0 0
c p weight 13 1.0;1.0;1.0 0
c p weight -13 1.0;1.0;1.0 0
c p weight 14 1.0;1.0;1.0 0
c p weight -14 1.0;1.0;1.0 0
c p weight 15 1.0;1.0;1.0 0
c p weight -15 1.0;1.0;1.0 0
c p semirings aspmc.semirings.probabilistic 0
c p quantify 1 2 3 4 5 6 7 8 9 10 11 12 13 14 15 0
c p auxilliary 1 2 3 10 11 12 13 14 15 0
